set VV := 0 1 2 3 4 5 6 7 8 9 10 11 12 13 14 ;
set VS := 0 1 2 3 4 5 6 7 8 9 10 11 12 13 14 15 16 17 18 19 20 21 22 23 24 25 26 27 28 29 30 31 32 33 34 ;
param cv := 
0 22
1 18
2 16
3 24
4 25
5 11
6 24
7 19
8 12
9 11
10 12
11 15
12 13
13 15
14 22
;
param cs := 
0 21
1 38
2 33
3 23
4 26
5 29
6 39
7 39
8 28
9 22
10 28
11 30
12 23
13 22
14 27
15 40
16 33
17 40
18 39
19 37
20 24
21 31
22 24
23 33
24 21
25 29
26 32
27 30
28 37
29 20
30 33
31 32
32 35
33 30
34 24
;
param bv:	 0 1 2 3 4 5 6 7 8 9 10 11 12 13 14 := 
		0 0 0 0 0 0 0 0 15 0 0 17 0 0 0 0 
		1 0 0 0 0 0 0 11 0 0 10 0 0 0 0 0 
		2 0 0 0 22 0 15 0 0 0 0 0 0 0 13 0 
		3 0 0 0 0 0 0 0 0 0 0 0 0 0 0 0 
		4 0 0 0 0 0 0 0 0 0 0 0 0 23 24 0 
		5 0 0 0 0 0 0 18 0 0 0 0 0 13 25 0 
		6 0 0 0 0 0 0 0 0 0 0 14 0 0 0 0 
		7 0 0 0 0 0 0 0 0 0 0 0 0 0 0 0 
		8 0 0 0 0 0 0 0 0 0 0 0 0 0 0 25 
		9 0 0 0 0 0 0 0 0 0 0 0 0 0 0 0 
		10 0 0 0 0 0 0 0 0 0 0 0 10 0 0 0 
		11 0 0 0 0 0 0 0 0 0 0 0 0 0 0 0 
		12 0 0 0 0 0 0 0 0 0 0 0 0 0 0 18 
		13 0 0 0 0 0 0 0 0 0 0 0 0 0 0 0 
		14 0 0 0 0 0 0 0 0 0 0 0 0 0 0 0 
;
param bs:	 0 1 2 3 4 5 6 7 8 9 10 11 12 13 14 15 16 17 18 19 20 21 22 23 24 25 26 27 28 29 30 31 32 33 34 := 
		0 0 0 0 0 22 0 35 0 0 0 0 0 28 0 0 0 0 0 0 0 0 0 0 0 0 0 0 0 0 0 0 0 0 0 0 
		1 0 0 0 0 0 0 0 0 0 0 0 27 0 0 0 0 0 0 0 28 0 24 0 0 0 0 0 0 0 0 0 29 0 0 0 
		2 0 0 0 0 0 0 0 0 0 0 0 0 0 26 33 0 0 0 0 0 0 0 0 0 0 0 0 0 0 0 0 0 0 0 35 
		3 0 0 0 0 0 28 0 0 0 0 0 0 0 0 0 0 0 0 0 0 0 0 0 27 0 0 0 0 0 0 0 31 37 0 0 
		4 22 0 0 0 0 0 0 0 0 0 0 0 28 0 0 0 0 0 0 0 0 0 0 0 0 0 0 0 0 0 0 0 0 0 0 
		5 0 0 0 28 0 0 0 0 0 0 0 0 0 0 0 0 0 29 0 0 0 0 32 0 0 0 0 0 0 0 0 39 0 0 27 
		6 35 0 0 0 0 0 0 0 0 0 0 0 0 0 0 0 0 24 0 0 0 30 0 0 0 24 0 20 33 0 0 0 0 33 0 
		7 0 0 0 0 0 0 0 0 0 35 0 0 36 0 0 0 0 0 0 24 0 0 0 0 0 0 0 0 0 0 0 0 0 0 0 
		8 0 0 0 0 0 0 0 0 0 29 0 0 0 0 26 0 0 0 0 0 0 0 0 0 0 0 0 34 37 0 0 0 0 0 0 
		9 0 0 0 0 0 0 0 35 29 0 0 33 0 30 22 0 0 0 0 0 0 0 0 0 23 24 0 35 0 0 0 0 0 0 0 
		10 0 0 0 0 0 0 0 0 0 0 0 0 0 0 0 0 0 0 0 0 0 20 0 0 0 0 0 0 0 0 0 0 0 0 0 
		11 0 27 0 0 0 0 0 0 0 33 0 0 0 0 0 0 0 0 0 0 0 0 0 34 0 0 0 0 0 31 0 0 0 0 0 
		12 28 0 0 0 28 0 0 36 0 0 0 0 0 0 0 0 37 0 0 0 0 0 0 0 0 0 0 0 0 0 0 0 0 0 0 
		13 0 0 26 0 0 0 0 0 0 30 0 0 0 0 0 0 0 0 0 0 0 0 0 0 0 0 0 0 0 23 23 0 0 0 0 
		14 0 0 33 0 0 0 0 0 26 22 0 0 0 0 0 0 0 37 0 0 0 0 0 0 0 0 0 0 0 0 0 0 0 0 0 
		15 0 0 0 0 0 0 0 0 0 0 0 0 0 0 0 0 31 0 0 0 0 0 0 0 0 0 35 0 0 0 0 0 36 0 0 
		16 0 0 0 0 0 0 0 0 0 0 0 0 37 0 0 31 0 0 0 0 0 0 0 0 0 0 0 0 0 0 36 0 0 0 0 
		17 0 0 0 0 0 29 24 0 0 0 0 0 0 0 37 0 0 0 0 0 0 0 0 0 0 25 0 0 23 0 31 0 0 26 0 
		18 0 0 0 0 0 0 0 0 0 0 0 0 0 0 0 0 0 0 0 0 26 0 0 0 0 0 0 0 0 0 0 34 0 0 0 
		19 0 28 0 0 0 0 0 24 0 0 0 0 0 0 0 0 0 0 0 0 0 0 0 0 32 0 0 0 0 36 0 0 0 0 0 
		20 0 0 0 0 0 0 0 0 0 0 0 0 0 0 0 0 0 0 26 0 0 0 0 0 0 0 0 0 0 0 0 0 0 0 33 
		21 0 24 0 0 0 0 30 0 0 0 20 0 0 0 0 0 0 0 0 0 0 0 0 0 0 0 0 0 0 0 25 0 0 0 0 
		22 0 0 0 0 0 32 0 0 0 0 0 0 0 0 0 0 0 0 0 0 0 0 0 0 0 0 21 0 32 0 0 0 37 0 0 
		23 0 0 0 27 0 0 0 0 0 0 0 34 0 0 0 0 0 0 0 0 0 0 0 0 0 34 0 0 0 0 0 0 0 0 26 
		24 0 0 0 0 0 0 0 0 0 23 0 0 0 0 0 0 0 0 0 32 0 0 0 0 0 0 0 0 0 0 0 0 0 0 0 
		25 0 0 0 0 0 0 24 0 0 24 0 0 0 0 0 0 0 25 0 0 0 0 0 34 0 0 0 0 28 0 0 0 0 0 0 
		26 0 0 0 0 0 0 0 0 0 0 0 0 0 0 0 35 0 0 0 0 0 0 21 0 0 0 0 0 0 0 0 24 40 0 30 
		27 0 0 0 0 0 0 20 0 34 35 0 0 0 0 0 0 0 0 0 0 0 0 0 0 0 0 0 0 0 0 0 0 0 0 0 
		28 0 0 0 0 0 0 33 0 37 0 0 0 0 0 0 0 0 23 0 0 0 0 32 0 0 28 0 0 0 0 0 0 0 0 32 
		29 0 0 0 0 0 0 0 0 0 0 0 31 0 23 0 0 0 0 0 36 0 0 0 0 0 0 0 0 0 0 0 39 0 0 0 
		30 0 0 0 0 0 0 0 0 0 0 0 0 0 23 0 0 36 31 0 0 0 25 0 0 0 0 0 0 0 0 0 0 0 0 0 
		31 0 29 0 31 0 39 0 0 0 0 0 0 0 0 0 0 0 0 34 0 0 0 0 0 0 0 24 0 0 39 0 0 0 0 0 
		32 0 0 0 37 0 0 0 0 0 0 0 0 0 0 0 36 0 0 0 0 0 0 37 0 0 0 40 0 0 0 0 0 0 34 0 
		33 0 0 0 0 0 0 33 0 0 0 0 0 0 0 0 0 0 26 0 0 0 0 0 0 0 0 0 0 0 0 0 0 34 0 0 
		34 0 0 35 0 0 27 0 0 0 0 0 0 0 0 0 0 0 0 0 0 33 0 0 26 0 0 30 0 32 0 0 0 0 0 0 
;
